Minimize
+ 3 x_0 + 5 x_1 + 2 x_2 + 4 x_3 + 6 x_4 + 3 x_5
+ 4 x_6 + 2 x_7 + 5 x_8 + 3 x_9 + 4 x_10 + 6 x_11
+ 5 x_12 + 3 x_13 + 4 x_14 + 2 x_15 + 5 x_16 + 3 x_17
+ 1 x_18 + 1 x_19 + 1 x_20 + 1 x_21 + 1 x_22 + 1 x_23
+ 1 x_24 + 1 x_25 + 1 x_26 + 1 x_27 + 1 x_28 + 1 x_29
+ 1 x_30 + 1 x_31 + 1 x_32 + 1 x_33 + 1 x_34 + 1 x_35
+ 142 x_36 + 165 x_37 + 138 x_38 + 174 x_39 + 159 x_40 + 147 x_41
+ 183 x_42 + 121 x_43 + 196 x_44 + 154 x_45 + 132 x_46 + 178 x_47
+ 167 x_48 + 145 x_49 + 189 x_50 + 123 x_51 + 171 x_52 + 156 x_53
subject to
constr_0: + x_0 - x_18 = 18
constr_1: + x_1 + x_18 - x_19 = 24
constr_2: + x_2 + x_19 - x_20 = 21
constr_3: + x_3 + x_20 - x_21 = 27
constr_4: + x_4 + x_21 - x_22 = 19
constr_5: + x_5 + x_22 - x_23 = 22
constr_6: + x_6 - x_24 = 25
constr_7: + x_7 + x_24 - x_25 = 17
constr_8: + x_8 + x_25 - x_26 = 23
constr_9: + x_9 + x_26 - x_27 = 28
constr_10: + x_10 + x_27 - x_28 = 20
constr_11: + x_11 + x_28 - x_29 = 15
constr_12: + x_12 - x_30 = 22
constr_13: + x_13 + x_30 - x_31 = 26
constr_14: + x_14 + x_31 - x_32 = 19
constr_15: + x_15 + x_32 - x_33 = 24
constr_16: + x_16 + x_33 - x_34 = 21
constr_17: + x_17 + x_34 - x_35 = 18
constr_18: + x_18 + x_24 + x_30 <= 100
constr_19: + x_19 + x_25 + x_31 <= 100
constr_20: + x_20 + x_26 + x_32 <= 100
constr_21: + x_21 + x_27 + x_33 <= 100
constr_22: + x_22 + x_28 + x_34 <= 100
constr_23: + x_23 + x_29 + x_35 <= 100
constr_24: + x_0 - 80 x_36 <= 0
constr_25: + x_1 - 80 x_37 <= 0
constr_26: + x_2 - 80 x_38 <= 0
constr_27: + x_3 - 80 x_39 <= 0
constr_28: + x_4 - 80 x_40 <= 0
constr_29: + x_5 - 80 x_41 <= 0
constr_30: + x_6 - 80 x_42 <= 0
constr_31: + x_7 - 80 x_43 <= 0
constr_32: + x_8 - 80 x_44 <= 0
constr_33: + x_9 - 80 x_45 <= 0
constr_34: + x_10 - 80 x_46 <= 0
constr_35: + x_11 - 80 x_47 <= 0
constr_36: + x_12 - 80 x_48 <= 0
constr_37: + x_13 - 80 x_49 <= 0
constr_38: + x_14 - 80 x_50 <= 0
constr_39: + x_15 - 80 x_51 <= 0
constr_40: + x_16 - 80 x_52 <= 0
constr_41: + x_17 - 80 x_53 <= 0
constr_42: + 1 x_0 + 0 x_36 + 1 x_6 + 0 x_42 + 1 x_12 + 0 x_48 <= 90
constr_43: + 1 x_1 + 0 x_37 + 1 x_7 + 0 x_43 + 1 x_13 + 0 x_49 <= 90
constr_44: + 1 x_2 + 0 x_38 + 1 x_8 + 0 x_44 + 1 x_14 + 0 x_50 <= 90
constr_45: + 1 x_3 + 0 x_39 + 1 x_9 + 0 x_45 + 1 x_15 + 0 x_51 <= 90
constr_46: + 1 x_4 + 0 x_40 + 1 x_10 + 0 x_46 + 1 x_16 + 0 x_52 <= 90
constr_47: + 1 x_5 + 0 x_41 + 1 x_11 + 0 x_47 + 1 x_17 + 0 x_53 <= 90
Binaries
x_36
x_37
x_38
x_39
x_40
x_41
x_42
x_43
x_44
x_45
x_46
x_47
x_48
x_49
x_50
x_51
x_52
x_53
End
